sat
( (res_init 11)
  (x_init 4)
  (y_init 1)
  (z_init 12)
  (c_0 (- 1))
  (c_1 11)
  (c_2 4)
  (c_3 1)
  (c_4 12)
  (c_5 (- 2))
  (c_6 0)
  (c_7 1)
  (c_8 0)
  (c_9 0)
  (c_10 3)
  (c_11 0)
  (c_12 0)
  (c_13 7)
  (c_14 0)
  (c_15 (- 1))
  (c_16 0)
  (c_17 0)
  (c_18 0)
  (c_19 1) )
